n_res = 6;
rcap = [29, 32, 18, 23, 97, 89];
rtype = [1, 1, 1, 1, 2, 2];
n_tasks = 16;
modes = [ {1, 2, 3}, {4, 5, 6}, {7, 8, 9}, {10, 11, 12}, {13, 14, 15}, {16, 17, 18}, {19, 20, 21}, {22, 23, 24}, {25, 26, 27}, {28, 29, 30}, {31, 32, 33}, {34, 35, 36}, {37, 38, 39}, {40, 41, 42}, {43, 44, 45}, {46, 47, 48} ];
succ = [ {4, 5, 8}, {7, 10, 14}, {10, 13, 14}, {6, 9}, {6, 9}, {7, 10, 11}, {13}, {9, 13, 16}, {14, 15}, {12}, {16}, {15, 16}, {15}, {}, {}, {} ];
n_opt = 48;
dur = [1, 8, 9, 3, 5, 9, 3, 5, 9, 4, 6, 10, 3, 5, 8, 1, 4, 10, 3, 5, 10, 2, 2, 10, 5, 6, 10, 1, 2, 8, 1, 5, 6, 4, 5, 7, 5, 7, 8, 4, 4, 9, 6, 7, 7, 3, 7, 9];
rreq = [|  8,  8,  8,  3,  0,  0, 10,  0,  5,  5,  0,  0,  7,  0,  0,  9,  0,  5,  7,  0,  5,  0,  0,  4,  0,  5,  0,  3,  0,  0,  8,  0,  7,  0,  0,  0,  7,  7,  6,  0,  7,  0,  5,  4,  1,  9,  8,  8
        |  5,  3,  0,  0,  6,  5,  0,  7,  0,  0,  6,  0,  0,  0,  5,  0,  7,  0,  7,  0,  5,  8,  6,  6,  5,  0,  0,  0,  7,  7, 10,  0, 10,  6,  5,  2,  0,  0,  7,  7,  0,  7,  9,  9,  0,  6,  0,  0
        |  8,  0,  8,  0,  0,  0,  0,  0,  0,  6,  5,  4,  4,  4,  4,  0,  4,  0,  0,  0,  0,  2,  0,  2, 10,  0,  8,  0,  0,  0,  8,  6,  5,  0,  7,  6,  0,  0,  0,  0,  2,  0,  0,  0,  6,  0,  0,  4
        |  0,  5,  0,  0,  0,  0,  7,  5,  2,  0,  0,  0,  0,  6,  5,  0,  6,  0,  0, 10,  9,  6,  7,  0,  0,  0,  0,  7,  0,  0,  3,  0,  0,  9,  7,  7,  0,  0,  0,  0,  0,  4,  0,  4,  7,  0,  3,  2
        | 10,  0,  0,  0,  9,  5,  0,  4,  0,  0,  8,  6,  5,  0,  4,  5,  5,  0,  6,  0,  6,  2,  1,  0,  0,  0,  4,  0,  8,  0,  9,  7,  0,  6,  0,  3,  0,  8,  6,  0,  0,  3,  0,  0,  0,  0, 10,  0
        |  0,  3,  3,  9,  0,  0,  5,  0,  5,  8,  0,  0,  0,  2,  0,  0,  0,  8,  0,  3,  0,  0,  0,  6,  1,  1,  0,  9,  0,  5,  0,  0,  3,  0,  7,  0,  7,  0,  0,  2,  5,  0,  7,  7,  4,  6,  0,  2 |];
